
  22   10
  10   10   10   10   10   10   10   10   10   10

   0   0   0   0   0   0   0   0   0   0   0   1 2 
   7   0   0   0   0   0   0  10   0   0   0   1 3 
   9   0  10   0   0   0   0   0   0   0   0   3 8 5 4 
   9  10   0   0   0   0   0   0   0   0   0   1 6 
   1   0   0   0   0   0  10   0   0   0   0   1 6 
   6  10   0   0   0   0   0   0   0   0   0   2 11 7 
   7   0   0   0   0   0   0   0  10   0   0   4 21 14 10 9 
   9   0   0   0  10   0   0   0   0   0   0   2 11 9 
   7   0   0   0   0  10   0   0   0   0   0   1 12 
   9   0   0   0   0   0   0   0   0  10   0   1 13 
   1   0   0   0   0   0   0  10   0   0   0   4 21 20 19 16 
   2   0   0   0   0   0   0  10   0   0   0   2 20 15 
   4   0   0   0   0   0   0   0  10   0   0   2 20 15 
   2   0   0   0   0   0   0   0  10   0   0   2 20 15 
   7   0   0   0   0   0   0  10   0   0   0   2 19 16 
   9   0   0   0   0   0   0   0   0  10   0   2 18 17 
   2   0   0   0   0   0   0   0   0  10   0   1 22
   1   0   0   0  10   0   0   0   0   0   0   1 22
   3   0   0   0   0   0  10   0   0   0   0   1 22
   8   0   0   0   0   0   0   0   0   0  10   1 22
   2   0   0   0   0   0   0  10   0   0   0   1 22
   0   0   0   0   0   0   0   0   0   0   0   0 
